&control
   prefix = 'slab'
   calculation = 'scf'
   verbosity = 'high'
   restart_mode = 'from_scratch'
   wf_collect = .true.
   tstress = .true.
   tprnfor = .true.
   outdir = './'
   wfcdir = './'
   pseudo_dir = './'
/
&system
  ibrav = 0
  nat = 44
  ntyp = 4
  ecutwfc = 80
/
&electrons
  conv_thr = 1.d-8
  mixing_beta = 0.7d0
  diagonalization = 'david'
/
ATOMIC_SPECIES
  H  1.00800   H_ONCV_PBE-1.0.upf
  B  10.811    B_ONCV_PBE-1.0.upf
  C  12.01100  C_ONCV_PBE-1.0.upf
  N  14.007    N_ONCV_PBE-1.0.upf
ATOMIC_POSITIONS angstrom
    B    0.0000000000    0.0000000000    0.000000000
    N    0.0000000000    1.4497288290    0.000000000
    B    1.2555020010    2.1745932460    0.000000000
    N    1.2555020010    3.6243220750    0.000000000
    B    2.5110040020    4.3491864920    0.000000000
    N    2.5110040020    5.7989153210    0.000000000
    B    3.7665060030    6.5237797380    0.000000000
    N    3.7665060030    7.9735085670    0.000000000
    B    1.2555020010   -2.1745932460    0.000000000
    N    1.2555020010   -0.7248644170    0.000000000
    B    2.5110040020    0.0000000000    0.000000000
    N    2.5110040020    1.4497288290    0.000000000
    B    3.7665060030    2.1745932460    0.000000000
    N    3.7665060030    3.6243220750    0.000000000
    B    5.0220080040    4.3491864920    0.000000000
    N    5.0220080040    5.7989153210    0.000000000
    B    2.5110040020   -4.3491864920    0.000000000
    N    2.5110040020   -2.8994576630    0.000000000
    B    3.7665060030   -2.1745932460    0.000000000
    N    3.7665060030   -0.7248644170    0.000000000
    B    5.0220080040    0.0000000000    0.000000000
    N    5.0220080040    1.4497288290    0.000000000
    B    6.2775100050    2.1745932460    0.000000000
    N    6.2775100050    3.6243220750    0.000000000
    B    3.7665060030   -6.5237797380    0.000000000
    N    3.7665060030   -5.0740509090    0.000000000
    B    5.0220080040   -4.3491864920    0.000000000
    N    5.0220080040   -2.8994576630    0.000000000
    B    6.2775100050   -2.1745932460    0.000000000
    N    6.2775100050   -0.7248644170    0.000000000
    B    7.5330120060    0.0000000000    0.000000000
    N    7.5330120060    1.4497288290    0.000000000
    C    2.558406003    -0.027364417     3.250000000
    C    3.766506003     0.670135583     3.250000000
    C    4.974606003    -0.027364417     3.250000000
    C    4.974606003    -1.422364417     3.250000000
    C    3.766506003    -2.119864417     3.250000000
    C    2.558406003    -1.422364417     3.250000000
    H    1.614406003     0.517635583     3.250000000
    H    3.766506003     1.760135583     3.250000000
    H    5.918606003     0.517635583     3.250000000
    H    5.918606003    -1.967364417     3.250000000
    H    3.766506003    -3.209864417     3.250000000
    H    1.614406003    -1.967364417     3.250000000
K_POINTS automatic
  9  9  1  0  0  0
CELL_PARAMETERS angstrom
  5.022008004   -8.698372984    0.000000000
  5.022008004    8.698372984    0.000000000
  0.000000000    0.000000000   18.250000000
