&control
   prefix = 'slab'
   calculation = 'scf'
   verbosity = 'high'
   restart_mode = 'from_scratch'
   wf_collect = .true.
   tstress = .true.
   tprnfor = .true.
   outdir = './'
   wfcdir = './'
   pseudo_dir = './'
/
&system
  ibrav = 0
  nat = 30
  ntyp = 2
  ecutwfc = 80
/
&electrons
  conv_thr = 1.d-8
  mixing_beta = 0.7d0
  diagonalization = 'david'
/
ATOMIC_SPECIES
  H  1.00800   H_ONCV_PBE-1.0.upf
  C  12.01100  C_ONCV_PBE-1.0.upf
ATOMIC_POSITIONS angstrom
C	3.536268811	1.224999424	0.000000000
C	4.950776135	1.224999424	0.000000000
C	5.658030052	2.449998848	0.000000000
C	7.072537376	2.449998848	0.000000000
C	7.779791293	3.674998272	0.000000000
C	9.194298617	3.674998272	0.000000000
C	5.658030052	0.000000000	0.000000000
C	7.072537376	0.000000000	0.000000000
C	7.779791293	1.224999424	0.000000000
C	9.194298617	1.224999424	0.000000000
C	9.901552534	2.449998848	0.000000000
C	11.316059858	2.449998848	0.000000000
C	7.779791293	-1.224999424	0.000000000
C	9.194298617	-1.224999424	0.000000000
C	9.901552534	0.000000000	0.000000000
C	11.316059858	0.000000000	0.000000000
C	12.023313775	1.224999424	0.000000000
C	13.437821099	1.224999424	0.000000000
C	5.684692087	0.000000000	3.250000000
C	6.378585358	1.201940758	3.250000000
C	6.378585358	-1.201940758	3.250000000
C	7.766647141	-1.201981239	3.250000000
C	7.766647141	1.201981239	3.250000000
C	8.460611035	0.000000000	3.250000000
H	5.831179022	-2.149597631	3.250000000
H	5.831179022	2.149597631	3.250000000
H	8.313524882	2.150040934	3.250000000
H	8.313524882	-2.150040934	3.250000000
H	9.554947540	0.000000000	3.250000000
H	4.590325043	0.000000000	3.250000000
K_POINTS automatic
  12 12  1 0 0 0
CELL_PARAMETERS angstrom
  6.365283723	-3.674998272    0.000000000
  6.365283723    3.674998272    0.000000000
  0.000000000	 0.000000000   18.250000000
