&control
   prefix = 'slab'
   calculation = 'scf'
   verbosity = 'high'
   restart_mode = 'from_scratch'
   wf_collect = .true.
   tstress = .true.
   tprnfor = .true.
   outdir = './'
   wfcdir = './'
   pseudo_dir = './'
/
&system
  ibrav = 0
  nat = 39
  ntyp = 4
  ecutwfc = 80 
/
&electrons
  conv_thr = 1.d-8
  mixing_beta = 0.7d0
  diagonalization = 'david'
/
ATOMIC_SPECIES
  H  1.00800   H_ONCV_PBE-1.0.upf
  C  12.01100  C_ONCV_PBE-1.0.upf
  S  32.06     S_ONCV_PBE-1.1.upf
  Mo 95.95    Mo_ONCV_PBE-1.0.upf
ATOMIC_POSITIONS angstrom
S	1.581249254	0.912934683	0.000000000
Mo	0.000000000	1.825869366	1.566682659
S	1.581249254	0.912934683	3.133354839
S	-0.000000002	3.651738734	0.000000000
Mo	-1.581249256	4.564673417	1.566682659
S	-0.000000002	3.651738734	3.133354839
S	-1.581249258	6.390542785	0.000000000
Mo	-3.162498512	7.303477468	1.566682659
S	-1.581249258	6.390542785	3.133354839
S	4.743747766	0.912934683	0.000000000
Mo	3.162498512	1.825869366	1.566682659
S	4.743747766	0.912934683	3.133354839
S	3.162498510	3.651738734	0.000000000
Mo	1.581249256	4.564673417	1.566682659
S	3.162498510	3.651738734	3.133354839
S	1.581249254	6.390542785	0.000000000
Mo	0.000000000	7.303477468	1.566682659
S	1.581249254	6.390542785	3.133354839
S	7.906246278	0.912934683	0.000000000
Mo	6.324997024	1.825869366	1.566682659
S	7.906246278	0.912934683	3.133354839
S	6.324997022	3.651738734	0.000000000
Mo	4.743747768	4.564673417	1.566682659
S	6.324997022	3.651738734	3.133354839
S	4.743747766	6.390542785	0.000000000
Mo	3.162498512	7.303477468	1.566682659
S	4.743747766	6.390542785	3.133354839
C	0.373149256	5.262173417	6.383354839
C	1.581249256	5.959673417	6.383354839
C	2.789349256	5.262173417	6.383354839
C	2.789349256	3.867173417	6.383354839
C	1.581249256	3.169673417	6.383354839
C	0.373149256	3.867173417	6.383354839
H	-0.570850744	5.807173417	6.383354839
H	1.581249256	7.049673417	6.383354839
H	3.733349256	5.807173417	6.383354839
H	3.733349256	3.322173417	6.383354839
H	1.581249256	2.079673417	6.383354839
H	-0.570850744	3.322173417	6.383354839
K_POINTS automatic
  12 12  1 0 0 0
CELL_PARAMETERS angstrom
    9.487495536    0.000000000    0.000000000
   -4.743747768    8.216412153    0.000000000
    0.000000000    0.000000000   21.383354839
