&control
   prefix = 'slab'
   calculation = 'scf'
   verbosity = 'high'
   restart_mode = 'from_scratch'
   wf_collect = .true.
   tstress = .true.
   tprnfor = .true.
   outdir = './'
   wfcdir = './'
   pseudo_dir = './'
/
&system
  ibrav = 0
  nat = 30
  ntyp = 4
  ecutwfc = 80 
/
&electrons
  conv_thr = 1.d-8
  mixing_beta = 0.7d0
  diagonalization = 'david'
/
ATOMIC_SPECIES
  H  1.00800   H_ONCV_PBE-1.0.upf
  B  10.811    B_ONCV_PBE-1.0.upf
  C  12.01100  C_ONCV_PBE-1.0.upf
  N  14.007    N_ONCV_PBE-1.0.upf
ATOMIC_POSITIONS angstrom
B        0.000000000   0.000000000   0.000000000
N        0.000000000   1.449728829   0.000000000
B        1.255502001   2.174593246   0.000000000
N        1.255502001   3.624322075   0.000000000
B        2.511004002   4.349186492   0.000000000
N        2.511004002   5.798915321   0.000000000
B        1.255502001  -2.174593246   0.000000000
N        1.255502001  -0.724864417   0.000000000
B        2.511004002   0.000000000   0.000000000
N        2.511004002   1.449728829   0.000000000
B        3.766506003   2.174593246   0.000000000
N        3.766506003   3.624322075   0.000000000
B        2.511004002  -4.349186492   0.000000000
N        2.511004002  -2.899457663   0.000000000
B        3.766506003  -2.174593246   0.000000000
N        3.766506003  -0.724864417   0.000000000
B        5.022008004   0.000000000   0.000000000
N        5.022008004   1.449728829   0.000000000
C        2.558406003  -0.027364417   3.250000000
C        3.766506003   0.670135583   3.250000000
C        4.974606003  -0.027364417   3.250000000
C        4.974606003  -1.422364417   3.250000000
C        3.766506003  -2.119864417   3.250000000
C        2.558406003  -1.422364417   3.250000000
H        1.614406003   0.517635583   3.250000000
H        3.766506003   1.760135583   3.250000000
H        5.918606003   0.517635583   3.250000000
H        5.918606003  -1.967364417   3.250000000
H        3.766506003  -3.209864417   3.250000000
H        1.614406003  -1.967364417   3.250000000
K_POINTS automatic
  12 12  1 0 0 0
CELL_PARAMETERS angstrom
  3.766506003  	-6.523779738    0.000000000
  3.766506003    6.523779738    0.000000000
  0.000000000    0.000000000   18.250000000
