&control
   prefix = 'bn'
   calculation = 'bands'
   restart_mode = 'from_scratch'
   wf_collect = .true.
   outdir = './'
   wfcdir = './'
   pseudo_dir = './'
/
&system
  ibrav = 0
  nat = 2
  ntyp = 2
  ecutwfc = 60
/
&electrons
  conv_thr = 1.d-8
  mixing_mode = 'local-TF'
  mixing_beta = 0.7d0
/
ATOMIC_SPECIES
  B  10.811    B.pz-mt_fhi.UPF
  N  14.007    N.pz-mt_fhi.UPF
CELL_PARAMETERS bohr
2.372555703	-4.109388686	0.000000000
2.372555703	4.109388686	0.000000000
0.000000000	0.000000000	28.345889829
ATOMIC_POSITIONS bohr
B	0.000000000	0.000000000	0.000000000
N	0.000000000	2.739591512	0.000000000
K_POINTS crystal
1710
  0.000291582  0.000000000  0.000000000   1.0
  0.000291582  0.055555556  0.000000000   2.0
  0.944736026  0.000000000  0.000000000   1.0
  0.000291582  0.111111111  0.000000000   2.0
  0.889180471 -0.000000000  0.000000000   1.0
  0.000291582  0.166666667  0.000000000   2.0
  0.833624915 -0.000000000  0.000000000   1.0
  0.000291582  0.222222222  0.000000000   2.0
  0.778069360 -0.000000000  0.000000000   1.0
  0.000291582  0.277777778  0.000000000   2.0
  0.722513804 -0.000000000  0.000000000   1.0
  0.000291582  0.333333333  0.000000000   2.0
  0.666958249 -0.000000000  0.000000000   1.0
  0.000291582  0.388888889  0.000000000   2.0
  0.611402693 -0.000000000  0.000000000   1.0
  0.000291582  0.444444444  0.000000000   2.0
  0.555847138  0.000000000  0.000000000   1.0
  0.000291582  0.500000000  0.000000000   2.0
  0.500291582 -0.000000000  0.000000000   1.0
  0.000291582  0.555555556  0.000000000   2.0
  0.444736026 -0.000000000  0.000000000   1.0
  0.000291582  0.611111111  0.000000000   2.0
  0.389180471 -0.000000000  0.000000000   1.0
  0.000291582  0.666666667  0.000000000   2.0
  0.333624915 -0.000000000  0.000000000   1.0
  0.000291582  0.722222222  0.000000000   2.0
  0.278069360 -0.000000000  0.000000000   1.0
  0.000291582  0.777777778  0.000000000   2.0
  0.222513804 -0.000000000  0.000000000   1.0
  0.000291582  0.833333333  0.000000000   2.0
  0.166958249 -0.000000000  0.000000000   1.0
  0.000291582  0.888888889  0.000000000   2.0
  0.111402693 -0.000000000  0.000000000   1.0
  0.000291582  0.944444444  0.000000000   2.0
  0.055847138 -0.000000000  0.000000000   1.0
  0.055847138  0.055555556  0.000000000   2.0
  0.944736026  0.944444444  0.000000000   2.0
  0.055847138  0.888888888  0.000000000   2.0
  0.055847138  0.111111111  0.000000000   2.0
  0.889180471  0.944444444  0.000000000   2.0
  0.111402693  0.833333333  0.000000000   2.0
  0.055847138  0.166666667  0.000000000   2.0
  0.833624915  0.944444444  0.000000000   2.0
  0.166958249  0.777777777  0.000000000   2.0
  0.055847138  0.222222222  0.000000000   2.0
  0.778069360  0.944444444  0.000000000   2.0
  0.222513804  0.722222222  0.000000000   2.0
  0.055847138  0.277777778  0.000000000   2.0
  0.722513804  0.944444444  0.000000000   2.0
  0.278069360  0.666666666  0.000000000   2.0
  0.055847138  0.333333333  0.000000000   2.0
  0.666958249  0.944444444  0.000000000   2.0
  0.333624915  0.611111111  0.000000000   2.0
  0.055847138  0.388888889  0.000000000   2.0
  0.611402693  0.944444444  0.000000000   2.0
  0.389180471  0.555555555  0.000000000   2.0
  0.055847138  0.444444444  0.000000000   2.0
  0.555847138  0.944444444  0.000000000   2.0
  0.444736026  0.500000000  0.000000000   2.0
  0.055847138  0.500000000  0.000000000   2.0
  0.500291582  0.944444444  0.000000000   2.0
  0.500291582  0.444444444  0.000000000   2.0
  0.055847138  0.555555556  0.000000000   2.0
  0.444736026  0.944444444  0.000000000   2.0
  0.555847138  0.388888888  0.000000000   2.0
  0.055847138  0.611111111  0.000000000   2.0
  0.389180471  0.944444444  0.000000000   2.0
  0.611402693  0.333333333  0.000000000   2.0
  0.055847138  0.666666667  0.000000000   2.0
  0.333624915  0.944444444  0.000000000   2.0
  0.666958249  0.277777777  0.000000000   2.0
  0.055847138  0.722222222  0.000000000   2.0
  0.278069360  0.944444444  0.000000000   2.0
  0.722513804  0.222222222  0.000000000   2.0
  0.055847138  0.777777778  0.000000000   2.0
  0.222513804  0.944444444  0.000000000   2.0
  0.778069360  0.166666666  0.000000000   2.0
  0.055847138  0.833333333  0.000000000   2.0
  0.166958249  0.944444444  0.000000000   2.0
  0.833624915  0.111111111  0.000000000   2.0
  0.111402693  0.111111111  0.000000000   2.0
  0.889180471  0.888888889  0.000000000   2.0
  0.111402693  0.777777778  0.000000000   2.0
  0.111402693  0.166666667  0.000000000   2.0
  0.833624915  0.888888889  0.000000000   2.0
  0.166958249  0.722222222  0.000000000   2.0
  0.111402693  0.222222222  0.000000000   2.0
  0.778069360  0.888888889  0.000000000   2.0
  0.222513804  0.666666667  0.000000000   2.0
  0.111402693  0.277777778  0.000000000   2.0
  0.722513804  0.888888889  0.000000000   2.0
  0.278069360  0.611111111  0.000000000   2.0
  0.111402693  0.333333333  0.000000000   2.0
  0.666958249  0.888888889  0.000000000   2.0
  0.333624915  0.555555556  0.000000000   2.0
  0.111402693  0.388888889  0.000000000   2.0
  0.611402693  0.888888889  0.000000000   2.0
  0.389180471  0.500000000  0.000000000   2.0
  0.111402693  0.444444444  0.000000000   2.0
  0.555847138  0.888888889  0.000000000   2.0
  0.444736026  0.444444445  0.000000000   2.0
  0.111402693  0.500000000  0.000000000   2.0
  0.500291582  0.888888889  0.000000000   2.0
  0.500291582  0.388888889  0.000000000   2.0
  0.111402693  0.555555556  0.000000000   2.0
  0.444736026  0.888888889  0.000000000   2.0
  0.555847138  0.333333333  0.000000000   2.0
  0.111402693  0.611111111  0.000000000   2.0
  0.389180471  0.888888889  0.000000000   2.0
  0.611402693  0.277777778  0.000000000   2.0
  0.111402693  0.666666667  0.000000000   2.0
  0.333624915  0.888888889  0.000000000   2.0
  0.666958249  0.222222222  0.000000000   2.0
  0.111402693  0.722222222  0.000000000   2.0
  0.278069360  0.888888889  0.000000000   2.0
  0.722513804  0.166666667  0.000000000   2.0
  0.166958249  0.166666667  0.000000000   2.0
  0.833624915  0.833333333  0.000000000   2.0
  0.166958249  0.666666666  0.000000000   2.0
  0.166958249  0.222222222  0.000000000   2.0
  0.778069360  0.833333333  0.000000000   2.0
  0.222513804  0.611111111  0.000000000   2.0
  0.166958249  0.277777778  0.000000000   2.0
  0.722513804  0.833333333  0.000000000   2.0
  0.278069360  0.555555555  0.000000000   2.0
  0.166958249  0.333333333  0.000000000   2.0
  0.666958249  0.833333333  0.000000000   2.0
  0.333624915  0.500000000  0.000000000   2.0
  0.166958249  0.388888889  0.000000000   2.0
  0.611402693  0.833333333  0.000000000   2.0
  0.389180471  0.444444444  0.000000000   2.0
  0.166958249  0.444444444  0.000000000   2.0
  0.555847138  0.833333333  0.000000000   2.0
  0.444736026  0.388888889  0.000000000   2.0
  0.166958249  0.500000000  0.000000000   2.0
  0.500291582  0.833333333  0.000000000   2.0
  0.500291582  0.333333333  0.000000000   2.0
  0.166958249  0.555555556  0.000000000   2.0
  0.444736026  0.833333333  0.000000000   2.0
  0.555847138  0.277777777  0.000000000   2.0
  0.166958249  0.611111111  0.000000000   2.0
  0.389180471  0.833333333  0.000000000   2.0
  0.611402693  0.222222222  0.000000000   2.0
  0.222513804  0.222222222  0.000000000   2.0
  0.778069360  0.777777778  0.000000000   2.0
  0.222513804  0.555555556  0.000000000   2.0
  0.222513804  0.277777778  0.000000000   2.0
  0.722513804  0.777777778  0.000000000   2.0
  0.278069360  0.500000000  0.000000000   2.0
  0.222513804  0.333333333  0.000000000   2.0
  0.666958249  0.777777778  0.000000000   2.0
  0.333624915  0.444444445  0.000000000   2.0
  0.222513804  0.388888889  0.000000000   2.0
  0.611402693  0.777777778  0.000000000   2.0
  0.389180471  0.388888889  0.000000000   2.0
  0.222513804  0.444444444  0.000000000   2.0
  0.555847138  0.777777778  0.000000000   2.0
  0.444736026  0.333333334  0.000000000   2.0
  0.222513804  0.500000000  0.000000000   2.0
  0.500291582  0.777777778  0.000000000   2.0
  0.500291582  0.277777778  0.000000000   2.0
  0.278069360  0.277777778  0.000000000   2.0
  0.722513804  0.722222222  0.000000000   2.0
  0.278069360  0.444444444  0.000000000   2.0
  0.278069360  0.333333333  0.000000000   2.0
  0.666958249  0.722222222  0.000000000   2.0
  0.333624915  0.388888889  0.000000000   2.0
  0.278069360  0.388888889  0.000000000   2.0
  0.611402693  0.722222222  0.000000000   2.0
  0.389180471  0.333333333  0.000000000   2.0
  0.333624915  0.333333333  0.000000000   2.0
  0.001166328  0.000000000  0.000000000   1.0
  0.001166328  0.055555556  0.000000000   2.0
  0.945610772  0.000000000  0.000000000   1.0
  0.001166328  0.111111111  0.000000000   2.0
  0.890055217 -0.000000000  0.000000000   1.0
  0.001166328  0.166666667  0.000000000   2.0
  0.834499661 -0.000000000  0.000000000   1.0
  0.001166328  0.222222222  0.000000000   2.0
  0.778944106 -0.000000000  0.000000000   1.0
  0.001166328  0.277777778  0.000000000   2.0
  0.723388550 -0.000000000  0.000000000   1.0
  0.001166328  0.333333333  0.000000000   2.0
  0.667832995 -0.000000000  0.000000000   1.0
  0.001166328  0.388888889  0.000000000   2.0
  0.612277439 -0.000000000  0.000000000   1.0
  0.001166328  0.444444444  0.000000000   2.0
  0.556721884  0.000000000  0.000000000   1.0
  0.001166328  0.500000000  0.000000000   2.0
  0.501166328 -0.000000000  0.000000000   1.0
  0.001166328  0.555555556  0.000000000   2.0
  0.445610772 -0.000000000  0.000000000   1.0
  0.001166328  0.611111111  0.000000000   2.0
  0.390055217 -0.000000000  0.000000000   1.0
  0.001166328  0.666666667  0.000000000   2.0
  0.334499661 -0.000000000  0.000000000   1.0
  0.001166328  0.722222222  0.000000000   2.0
  0.278944106 -0.000000000  0.000000000   1.0
  0.001166328  0.777777778  0.000000000   2.0
  0.223388550 -0.000000000  0.000000000   1.0
  0.001166328  0.833333333  0.000000000   2.0
  0.167832995 -0.000000000  0.000000000   1.0
  0.001166328  0.888888889  0.000000000   2.0
  0.112277439 -0.000000000  0.000000000   1.0
  0.001166328  0.944444444  0.000000000   2.0
  0.056721884 -0.000000000  0.000000000   1.0
  0.056721884  0.055555556  0.000000000   2.0
  0.945610772  0.944444444  0.000000000   2.0
  0.056721884  0.888888888  0.000000000   2.0
  0.056721884  0.111111111  0.000000000   2.0
  0.890055217  0.944444444  0.000000000   2.0
  0.112277439  0.833333333  0.000000000   2.0
  0.056721884  0.166666667  0.000000000   2.0
  0.834499661  0.944444444  0.000000000   2.0
  0.167832995  0.777777777  0.000000000   2.0
  0.056721884  0.222222222  0.000000000   2.0
  0.778944106  0.944444444  0.000000000   2.0
  0.223388550  0.722222222  0.000000000   2.0
  0.056721884  0.277777778  0.000000000   2.0
  0.723388550  0.944444444  0.000000000   2.0
  0.278944106  0.666666666  0.000000000   2.0
  0.056721884  0.333333333  0.000000000   2.0
  0.667832995  0.944444444  0.000000000   2.0
  0.334499661  0.611111111  0.000000000   2.0
  0.056721884  0.388888889  0.000000000   2.0
  0.612277439  0.944444444  0.000000000   2.0
  0.390055217  0.555555555  0.000000000   2.0
  0.056721884  0.444444444  0.000000000   2.0
  0.556721884  0.944444444  0.000000000   2.0
  0.445610772  0.500000000  0.000000000   2.0
  0.056721884  0.500000000  0.000000000   2.0
  0.501166328  0.944444444  0.000000000   2.0
  0.501166328  0.444444444  0.000000000   2.0
  0.056721884  0.555555556  0.000000000   2.0
  0.445610772  0.944444444  0.000000000   2.0
  0.556721884  0.388888888  0.000000000   2.0
  0.056721884  0.611111111  0.000000000   2.0
  0.390055217  0.944444444  0.000000000   2.0
  0.612277439  0.333333333  0.000000000   2.0
  0.056721884  0.666666667  0.000000000   2.0
  0.334499661  0.944444444  0.000000000   2.0
  0.667832995  0.277777777  0.000000000   2.0
  0.056721884  0.722222222  0.000000000   2.0
  0.278944106  0.944444444  0.000000000   2.0
  0.723388550  0.222222222  0.000000000   2.0
  0.056721884  0.777777778  0.000000000   2.0
  0.223388550  0.944444444  0.000000000   2.0
  0.778944106  0.166666666  0.000000000   2.0
  0.056721884  0.833333333  0.000000000   2.0
  0.167832995  0.944444444  0.000000000   2.0
  0.834499661  0.111111111  0.000000000   2.0
  0.112277439  0.111111111  0.000000000   2.0
  0.890055217  0.888888889  0.000000000   2.0
  0.112277439  0.777777778  0.000000000   2.0
  0.112277439  0.166666667  0.000000000   2.0
  0.834499661  0.888888889  0.000000000   2.0
  0.167832995  0.722222222  0.000000000   2.0
  0.112277439  0.222222222  0.000000000   2.0
  0.778944106  0.888888889  0.000000000   2.0
  0.223388550  0.666666667  0.000000000   2.0
  0.112277439  0.277777778  0.000000000   2.0
  0.723388550  0.888888889  0.000000000   2.0
  0.278944106  0.611111111  0.000000000   2.0
  0.112277439  0.333333333  0.000000000   2.0
  0.667832995  0.888888889  0.000000000   2.0
  0.334499661  0.555555556  0.000000000   2.0
  0.112277439  0.388888889  0.000000000   2.0
  0.612277439  0.888888889  0.000000000   2.0
  0.390055217  0.500000000  0.000000000   2.0
  0.112277439  0.444444444  0.000000000   2.0
  0.556721884  0.888888889  0.000000000   2.0
  0.445610772  0.444444445  0.000000000   2.0
  0.112277439  0.500000000  0.000000000   2.0
  0.501166328  0.888888889  0.000000000   2.0
  0.501166328  0.388888889  0.000000000   2.0
  0.112277439  0.555555556  0.000000000   2.0
  0.445610772  0.888888889  0.000000000   2.0
  0.556721884  0.333333333  0.000000000   2.0
  0.112277439  0.611111111  0.000000000   2.0
  0.390055217  0.888888889  0.000000000   2.0
  0.612277439  0.277777778  0.000000000   2.0
  0.112277439  0.666666667  0.000000000   2.0
  0.334499661  0.888888889  0.000000000   2.0
  0.667832995  0.222222222  0.000000000   2.0
  0.112277439  0.722222222  0.000000000   2.0
  0.278944106  0.888888889  0.000000000   2.0
  0.723388550  0.166666667  0.000000000   2.0
  0.167832995  0.166666667  0.000000000   2.0
  0.834499661  0.833333333  0.000000000   2.0
  0.167832995  0.666666666  0.000000000   2.0
  0.167832995  0.222222222  0.000000000   2.0
  0.778944106  0.833333333  0.000000000   2.0
  0.223388550  0.611111111  0.000000000   2.0
  0.167832995  0.277777778  0.000000000   2.0
  0.723388550  0.833333333  0.000000000   2.0
  0.278944106  0.555555555  0.000000000   2.0
  0.167832995  0.333333333  0.000000000   2.0
  0.667832995  0.833333333  0.000000000   2.0
  0.334499661  0.500000000  0.000000000   2.0
  0.167832995  0.388888889  0.000000000   2.0
  0.612277439  0.833333333  0.000000000   2.0
  0.390055217  0.444444444  0.000000000   2.0
  0.167832995  0.444444444  0.000000000   2.0
  0.556721884  0.833333333  0.000000000   2.0
  0.445610772  0.388888889  0.000000000   2.0
  0.167832995  0.500000000  0.000000000   2.0
  0.501166328  0.833333333  0.000000000   2.0
  0.501166328  0.333333333  0.000000000   2.0
  0.167832995  0.555555556  0.000000000   2.0
  0.445610772  0.833333333  0.000000000   2.0
  0.556721884  0.277777777  0.000000000   2.0
  0.167832995  0.611111111  0.000000000   2.0
  0.390055217  0.833333333  0.000000000   2.0
  0.612277439  0.222222222  0.000000000   2.0
  0.223388550  0.222222222  0.000000000   2.0
  0.778944106  0.777777778  0.000000000   2.0
  0.223388550  0.555555556  0.000000000   2.0
  0.223388550  0.277777778  0.000000000   2.0
  0.723388550  0.777777778  0.000000000   2.0
  0.278944106  0.500000000  0.000000000   2.0
  0.223388550  0.333333333  0.000000000   2.0
  0.667832995  0.777777778  0.000000000   2.0
  0.334499661  0.444444445  0.000000000   2.0
  0.223388550  0.388888889  0.000000000   2.0
  0.612277439  0.777777778  0.000000000   2.0
  0.390055217  0.388888889  0.000000000   2.0
  0.223388550  0.444444444  0.000000000   2.0
  0.556721884  0.777777778  0.000000000   2.0
  0.445610772  0.333333334  0.000000000   2.0
  0.223388550  0.500000000  0.000000000   2.0
  0.501166328  0.777777778  0.000000000   2.0
  0.501166328  0.277777778  0.000000000   2.0
  0.278944106  0.277777778  0.000000000   2.0
  0.723388550  0.722222222  0.000000000   2.0
  0.278944106  0.444444444  0.000000000   2.0
  0.278944106  0.333333333  0.000000000   2.0
  0.667832995  0.722222222  0.000000000   2.0
  0.334499661  0.388888889  0.000000000   2.0
  0.278944106  0.388888889  0.000000000   2.0
  0.612277439  0.722222222  0.000000000   2.0
  0.390055217  0.333333333  0.000000000   2.0
  0.334499661  0.333333333  0.000000000   2.0
  0.002624238  0.000000000  0.000000000   1.0
  0.002624238  0.055555556  0.000000000   2.0
  0.947068682  0.000000000  0.000000000   1.0
  0.002624238  0.111111111  0.000000000   2.0
  0.891513127 -0.000000000  0.000000000   1.0
  0.002624238  0.166666667  0.000000000   2.0
  0.835957571 -0.000000000  0.000000000   1.0
  0.002624238  0.222222222  0.000000000   2.0
  0.780402016 -0.000000000  0.000000000   1.0
  0.002624238  0.277777778  0.000000000   2.0
  0.724846460 -0.000000000  0.000000000   1.0
  0.002624238  0.333333333  0.000000000   2.0
  0.669290905 -0.000000000  0.000000000   1.0
  0.002624238  0.388888889  0.000000000   2.0
  0.613735349 -0.000000000  0.000000000   1.0
  0.002624238  0.444444444  0.000000000   2.0
  0.558179794  0.000000000  0.000000000   1.0
  0.002624238  0.500000000  0.000000000   2.0
  0.502624238 -0.000000000  0.000000000   1.0
  0.002624238  0.555555556  0.000000000   2.0
  0.447068682 -0.000000000  0.000000000   1.0
  0.002624238  0.611111111  0.000000000   2.0
  0.391513127 -0.000000000  0.000000000   1.0
  0.002624238  0.666666667  0.000000000   2.0
  0.335957571 -0.000000000  0.000000000   1.0
  0.002624238  0.722222222  0.000000000   2.0
  0.280402016 -0.000000000  0.000000000   1.0
  0.002624238  0.777777778  0.000000000   2.0
  0.224846460 -0.000000000  0.000000000   1.0
  0.002624238  0.833333333  0.000000000   2.0
  0.169290905 -0.000000000  0.000000000   1.0
  0.002624238  0.888888889  0.000000000   2.0
  0.113735349 -0.000000000  0.000000000   1.0
  0.002624238  0.944444444  0.000000000   2.0
  0.058179794 -0.000000000  0.000000000   1.0
  0.058179794  0.055555556  0.000000000   2.0
  0.947068682  0.944444444  0.000000000   2.0
  0.058179794  0.888888888  0.000000000   2.0
  0.058179794  0.111111111  0.000000000   2.0
  0.891513127  0.944444444  0.000000000   2.0
  0.113735349  0.833333333  0.000000000   2.0
  0.058179794  0.166666667  0.000000000   2.0
  0.835957571  0.944444444  0.000000000   2.0
  0.169290905  0.777777777  0.000000000   2.0
  0.058179794  0.222222222  0.000000000   2.0
  0.780402016  0.944444444  0.000000000   2.0
  0.224846460  0.722222222  0.000000000   2.0
  0.058179794  0.277777778  0.000000000   2.0
  0.724846460  0.944444444  0.000000000   2.0
  0.280402016  0.666666666  0.000000000   2.0
  0.058179794  0.333333333  0.000000000   2.0
  0.669290905  0.944444444  0.000000000   2.0
  0.335957571  0.611111111  0.000000000   2.0
  0.058179794  0.388888889  0.000000000   2.0
  0.613735349  0.944444444  0.000000000   2.0
  0.391513127  0.555555555  0.000000000   2.0
  0.058179794  0.444444444  0.000000000   2.0
  0.558179794  0.944444444  0.000000000   2.0
  0.447068682  0.500000000  0.000000000   2.0
  0.058179794  0.500000000  0.000000000   2.0
  0.502624238  0.944444444  0.000000000   2.0
  0.502624238  0.444444444  0.000000000   2.0
  0.058179794  0.555555556  0.000000000   2.0
  0.447068682  0.944444444  0.000000000   2.0
  0.558179794  0.388888888  0.000000000   2.0
  0.058179794  0.611111111  0.000000000   2.0
  0.391513127  0.944444444  0.000000000   2.0
  0.613735349  0.333333333  0.000000000   2.0
  0.058179794  0.666666667  0.000000000   2.0
  0.335957571  0.944444444  0.000000000   2.0
  0.669290905  0.277777777  0.000000000   2.0
  0.058179794  0.722222222  0.000000000   2.0
  0.280402016  0.944444444  0.000000000   2.0
  0.724846460  0.222222222  0.000000000   2.0
  0.058179794  0.777777778  0.000000000   2.0
  0.224846460  0.944444444  0.000000000   2.0
  0.780402016  0.166666666  0.000000000   2.0
  0.058179794  0.833333333  0.000000000   2.0
  0.169290905  0.944444444  0.000000000   2.0
  0.835957571  0.111111111  0.000000000   2.0
  0.113735349  0.111111111  0.000000000   2.0
  0.891513127  0.888888889  0.000000000   2.0
  0.113735349  0.777777778  0.000000000   2.0
  0.113735349  0.166666667  0.000000000   2.0
  0.835957571  0.888888889  0.000000000   2.0
  0.169290905  0.722222222  0.000000000   2.0
  0.113735349  0.222222222  0.000000000   2.0
  0.780402016  0.888888889  0.000000000   2.0
  0.224846460  0.666666667  0.000000000   2.0
  0.113735349  0.277777778  0.000000000   2.0
  0.724846460  0.888888889  0.000000000   2.0
  0.280402016  0.611111111  0.000000000   2.0
  0.113735349  0.333333333  0.000000000   2.0
  0.669290905  0.888888889  0.000000000   2.0
  0.335957571  0.555555556  0.000000000   2.0
  0.113735349  0.388888889  0.000000000   2.0
  0.613735349  0.888888889  0.000000000   2.0
  0.391513127  0.500000000  0.000000000   2.0
  0.113735349  0.444444444  0.000000000   2.0
  0.558179794  0.888888889  0.000000000   2.0
  0.447068682  0.444444445  0.000000000   2.0
  0.113735349  0.500000000  0.000000000   2.0
  0.502624238  0.888888889  0.000000000   2.0
  0.502624238  0.388888889  0.000000000   2.0
  0.113735349  0.555555556  0.000000000   2.0
  0.447068682  0.888888889  0.000000000   2.0
  0.558179794  0.333333333  0.000000000   2.0
  0.113735349  0.611111111  0.000000000   2.0
  0.391513127  0.888888889  0.000000000   2.0
  0.613735349  0.277777778  0.000000000   2.0
  0.113735349  0.666666667  0.000000000   2.0
  0.335957571  0.888888889  0.000000000   2.0
  0.669290905  0.222222222  0.000000000   2.0
  0.113735349  0.722222222  0.000000000   2.0
  0.280402016  0.888888889  0.000000000   2.0
  0.724846460  0.166666667  0.000000000   2.0
  0.169290905  0.166666667  0.000000000   2.0
  0.835957571  0.833333333  0.000000000   2.0
  0.169290905  0.666666666  0.000000000   2.0
  0.169290905  0.222222222  0.000000000   2.0
  0.780402016  0.833333333  0.000000000   2.0
  0.224846460  0.611111111  0.000000000   2.0
  0.169290905  0.277777778  0.000000000   2.0
  0.724846460  0.833333333  0.000000000   2.0
  0.280402016  0.555555555  0.000000000   2.0
  0.169290905  0.333333333  0.000000000   2.0
  0.669290905  0.833333333  0.000000000   2.0
  0.335957571  0.500000000  0.000000000   2.0
  0.169290905  0.388888889  0.000000000   2.0
  0.613735349  0.833333333  0.000000000   2.0
  0.391513127  0.444444444  0.000000000   2.0
  0.169290905  0.444444444  0.000000000   2.0
  0.558179794  0.833333333  0.000000000   2.0
  0.447068682  0.388888889  0.000000000   2.0
  0.169290905  0.500000000  0.000000000   2.0
  0.502624238  0.833333333  0.000000000   2.0
  0.502624238  0.333333333  0.000000000   2.0
  0.169290905  0.555555556  0.000000000   2.0
  0.447068682  0.833333333  0.000000000   2.0
  0.558179794  0.277777777  0.000000000   2.0
  0.169290905  0.611111111  0.000000000   2.0
  0.391513127  0.833333333  0.000000000   2.0
  0.613735349  0.222222222  0.000000000   2.0
  0.224846460  0.222222222  0.000000000   2.0
  0.780402016  0.777777778  0.000000000   2.0
  0.224846460  0.555555556  0.000000000   2.0
  0.224846460  0.277777778  0.000000000   2.0
  0.724846460  0.777777778  0.000000000   2.0
  0.280402016  0.500000000  0.000000000   2.0
  0.224846460  0.333333333  0.000000000   2.0
  0.669290905  0.777777778  0.000000000   2.0
  0.335957571  0.444444445  0.000000000   2.0
  0.224846460  0.388888889  0.000000000   2.0
  0.613735349  0.777777778  0.000000000   2.0
  0.391513127  0.388888889  0.000000000   2.0
  0.224846460  0.444444444  0.000000000   2.0
  0.558179794  0.777777778  0.000000000   2.0
  0.447068682  0.333333334  0.000000000   2.0
  0.224846460  0.500000000  0.000000000   2.0
  0.502624238  0.777777778  0.000000000   2.0
  0.502624238  0.277777778  0.000000000   2.0
  0.280402016  0.277777778  0.000000000   2.0
  0.724846460  0.722222222  0.000000000   2.0
  0.280402016  0.444444444  0.000000000   2.0
  0.280402016  0.333333333  0.000000000   2.0
  0.669290905  0.722222222  0.000000000   2.0
  0.335957571  0.388888889  0.000000000   2.0
  0.280402016  0.388888889  0.000000000   2.0
  0.613735349  0.722222222  0.000000000   2.0
  0.391513127  0.333333333  0.000000000   2.0
  0.335957571  0.333333333  0.000000000   2.0
  0.004665312  0.000000000  0.000000000   1.0
  0.004665312  0.055555556  0.000000000   2.0
  0.949109756  0.000000000  0.000000000   1.0
  0.004665312  0.111111111  0.000000000   2.0
  0.893554201 -0.000000000  0.000000000   1.0
  0.004665312  0.166666667  0.000000000   2.0
  0.837998645 -0.000000000  0.000000000   1.0
  0.004665312  0.222222222  0.000000000   2.0
  0.782443090 -0.000000000  0.000000000   1.0
  0.004665312  0.277777778  0.000000000   2.0
  0.726887534 -0.000000000  0.000000000   1.0
  0.004665312  0.333333333  0.000000000   2.0
  0.671331979 -0.000000000  0.000000000   1.0
  0.004665312  0.388888889  0.000000000   2.0
  0.615776423 -0.000000000  0.000000000   1.0
  0.004665312  0.444444444  0.000000000   2.0
  0.560220868  0.000000000  0.000000000   1.0
  0.004665312  0.500000000  0.000000000   2.0
  0.504665312 -0.000000000  0.000000000   1.0
  0.004665312  0.555555556  0.000000000   2.0
  0.449109756 -0.000000000  0.000000000   1.0
  0.004665312  0.611111111  0.000000000   2.0
  0.393554201 -0.000000000  0.000000000   1.0
  0.004665312  0.666666667  0.000000000   2.0
  0.337998645 -0.000000000  0.000000000   1.0
  0.004665312  0.722222222  0.000000000   2.0
  0.282443090 -0.000000000  0.000000000   1.0
  0.004665312  0.777777778  0.000000000   2.0
  0.226887534 -0.000000000  0.000000000   1.0
  0.004665312  0.833333333  0.000000000   2.0
  0.171331979 -0.000000000  0.000000000   1.0
  0.004665312  0.888888889  0.000000000   2.0
  0.115776423 -0.000000000  0.000000000   1.0
  0.004665312  0.944444444  0.000000000   2.0
  0.060220868 -0.000000000  0.000000000   1.0
  0.060220868  0.055555556  0.000000000   2.0
  0.949109756  0.944444444  0.000000000   2.0
  0.060220868  0.888888888  0.000000000   2.0
  0.060220868  0.111111111  0.000000000   2.0
  0.893554201  0.944444444  0.000000000   2.0
  0.115776423  0.833333333  0.000000000   2.0
  0.060220868  0.166666667  0.000000000   2.0
  0.837998645  0.944444444  0.000000000   2.0
  0.171331979  0.777777777  0.000000000   2.0
  0.060220868  0.222222222  0.000000000   2.0
  0.782443090  0.944444444  0.000000000   2.0
  0.226887534  0.722222222  0.000000000   2.0
  0.060220868  0.277777778  0.000000000   2.0
  0.726887534  0.944444444  0.000000000   2.0
  0.282443090  0.666666666  0.000000000   2.0
  0.060220868  0.333333333  0.000000000   2.0
  0.671331979  0.944444444  0.000000000   2.0
  0.337998645  0.611111111  0.000000000   2.0
  0.060220868  0.388888889  0.000000000   2.0
  0.615776423  0.944444444  0.000000000   2.0
  0.393554201  0.555555555  0.000000000   2.0
  0.060220868  0.444444444  0.000000000   2.0
  0.560220868  0.944444444  0.000000000   2.0
  0.449109756  0.500000000  0.000000000   2.0
  0.060220868  0.500000000  0.000000000   2.0
  0.504665312  0.944444444  0.000000000   2.0
  0.504665312  0.444444444  0.000000000   2.0
  0.060220868  0.555555556  0.000000000   2.0
  0.449109756  0.944444444  0.000000000   2.0
  0.560220868  0.388888888  0.000000000   2.0
  0.060220868  0.611111111  0.000000000   2.0
  0.393554201  0.944444444  0.000000000   2.0
  0.615776423  0.333333333  0.000000000   2.0
  0.060220868  0.666666667  0.000000000   2.0
  0.337998645  0.944444444  0.000000000   2.0
  0.671331979  0.277777777  0.000000000   2.0
  0.060220868  0.722222222  0.000000000   2.0
  0.282443090  0.944444444  0.000000000   2.0
  0.726887534  0.222222222  0.000000000   2.0
  0.060220868  0.777777778  0.000000000   2.0
  0.226887534  0.944444444  0.000000000   2.0
  0.782443090  0.166666666  0.000000000   2.0
  0.060220868  0.833333333  0.000000000   2.0
  0.171331979  0.944444444  0.000000000   2.0
  0.837998645  0.111111111  0.000000000   2.0
  0.115776423  0.111111111  0.000000000   2.0
  0.893554201  0.888888889  0.000000000   2.0
  0.115776423  0.777777778  0.000000000   2.0
  0.115776423  0.166666667  0.000000000   2.0
  0.837998645  0.888888889  0.000000000   2.0
  0.171331979  0.722222222  0.000000000   2.0
  0.115776423  0.222222222  0.000000000   2.0
  0.782443090  0.888888889  0.000000000   2.0
  0.226887534  0.666666667  0.000000000   2.0
  0.115776423  0.277777778  0.000000000   2.0
  0.726887534  0.888888889  0.000000000   2.0
  0.282443090  0.611111111  0.000000000   2.0
  0.115776423  0.333333333  0.000000000   2.0
  0.671331979  0.888888889  0.000000000   2.0
  0.337998645  0.555555556  0.000000000   2.0
  0.115776423  0.388888889  0.000000000   2.0
  0.615776423  0.888888889  0.000000000   2.0
  0.393554201  0.500000000  0.000000000   2.0
  0.115776423  0.444444444  0.000000000   2.0
  0.560220868  0.888888889  0.000000000   2.0
  0.449109756  0.444444445  0.000000000   2.0
  0.115776423  0.500000000  0.000000000   2.0
  0.504665312  0.888888889  0.000000000   2.0
  0.504665312  0.388888889  0.000000000   2.0
  0.115776423  0.555555556  0.000000000   2.0
  0.449109756  0.888888889  0.000000000   2.0
  0.560220868  0.333333333  0.000000000   2.0
  0.115776423  0.611111111  0.000000000   2.0
  0.393554201  0.888888889  0.000000000   2.0
  0.615776423  0.277777778  0.000000000   2.0
  0.115776423  0.666666667  0.000000000   2.0
  0.337998645  0.888888889  0.000000000   2.0
  0.671331979  0.222222222  0.000000000   2.0
  0.115776423  0.722222222  0.000000000   2.0
  0.282443090  0.888888889  0.000000000   2.0
  0.726887534  0.166666667  0.000000000   2.0
  0.171331979  0.166666667  0.000000000   2.0
  0.837998645  0.833333333  0.000000000   2.0
  0.171331979  0.666666666  0.000000000   2.0
  0.171331979  0.222222222  0.000000000   2.0
  0.782443090  0.833333333  0.000000000   2.0
  0.226887534  0.611111111  0.000000000   2.0
  0.171331979  0.277777778  0.000000000   2.0
  0.726887534  0.833333333  0.000000000   2.0
  0.282443090  0.555555555  0.000000000   2.0