&control
   prefix = 'si'
   calculation = 'bands'
   restart_mode = 'from_scratch'
   wf_collect = .true.
   outdir = './'
   wfcdir = './'
   pseudo_dir = './'
/
&system
   ibrav = 0
   celldm(1) = 10.2612
   nat = 8
   ntyp = 1
   ecutwfc = 60.0
/
&electrons
   conv_thr = 1.0d-8
   mixing_mode = 'plain'
   mixing_beta = 0.7
   diagonalization = 'cg'
   diago_full_acc = .true.
/
CELL_PARAMETERS (alat= 10.26120000)
   0.991293120   0.000000000   0.000000000
   0.000000000   0.991293120   0.000000000
   0.000000000   0.000000000   0.991293120
ATOMIC_SPECIES
  Si  28.086  Si.UPF
ATOMIC_POSITIONS (crystal)
Si       0.000000000   0.000000000   0.000000000
Si       0.250000001   0.250000001   0.250000001
Si       0.000000000   0.500000000   0.500000000
Si       0.250000001   0.749999999   0.749999999
Si       0.500000000   0.000000000   0.500000000
Si       0.749999999   0.250000001   0.749999999
Si       0.500000000   0.500000000   0.000000000
Si       0.749999999   0.749999999   0.250000001
K_POINTS crystal
   75
  0.000000000  0.000000000  0.001000000   1.0
  0.000000000  0.000000000  0.201000000   1.0
  0.000000000  0.000000000  0.401000000   1.0
  0.000000000  0.000000000  0.601000000   1.0
  0.000000000  0.000000000  0.801000000   1.0
  0.000000000  0.200000000  0.001000000   2.0
  0.000000000  0.200000000  0.201000000   2.0
  0.000000000  0.200000000  0.401000000   2.0
  0.000000000  0.200000000  0.601000000   2.0
  0.000000000  0.200000000  0.801000000   2.0
  0.000000000  0.400000000  0.001000000   2.0
  0.000000000  0.400000000  0.201000000   2.0
  0.000000000  0.400000000  0.401000000   2.0
  0.000000000  0.400000000  0.601000000   2.0
  0.000000000  0.400000000  0.801000000   2.0
  0.000000000  0.600000000  0.001000000   2.0
  0.000000000  0.600000000  0.201000000   2.0
  0.000000000  0.600000000  0.401000000   2.0
  0.000000000  0.600000000  0.601000000   2.0
  0.000000000  0.600000000  0.801000000   2.0
  0.000000000  0.800000000  0.001000000   2.0
  0.000000000  0.800000000  0.201000000   2.0
  0.000000000  0.800000000  0.401000000   2.0
  0.000000000  0.800000000  0.601000000   2.0
  0.000000000  0.800000000  0.801000000   2.0
  0.200000000  0.200000000  0.001000000   1.0
  0.200000000  0.200000000  0.201000000   1.0
  0.200000000  0.200000000  0.401000000   1.0
  0.200000000  0.200000000  0.601000000   1.0
  0.200000000  0.200000000  0.801000000   1.0
  0.200000000  0.400000000  0.001000000   2.0
  0.200000000  0.400000000  0.201000000   2.0
  0.200000000  0.400000000  0.401000000   2.0
  0.200000000  0.400000000  0.601000000   2.0
  0.200000000  0.400000000  0.801000000   2.0
  0.200000000  0.600000000  0.001000000   2.0
  0.200000000  0.600000000  0.201000000   2.0
  0.200000000  0.600000000  0.401000000   2.0
  0.200000000  0.600000000  0.601000000   2.0
  0.200000000  0.600000000  0.801000000   2.0
  0.200000000  0.800000000  0.001000000   2.0
  0.200000000  0.800000000  0.201000000   2.0
  0.200000000  0.800000000  0.401000000   2.0
  0.200000000  0.800000000  0.601000000   2.0
  0.200000000  0.800000000  0.801000000   2.0
  0.400000000  0.400000000  0.001000000   1.0
  0.400000000  0.400000000  0.201000000   1.0
  0.400000000  0.400000000  0.401000000   1.0
  0.400000000  0.400000000  0.601000000   1.0
  0.400000000  0.400000000  0.801000000   1.0
  0.400000000  0.600000000  0.001000000   2.0
  0.400000000  0.600000000  0.201000000   2.0
  0.400000000  0.600000000  0.401000000   2.0
  0.400000000  0.600000000  0.601000000   2.0
  0.400000000  0.600000000  0.801000000   2.0
  0.400000000  0.800000000  0.001000000   2.0
  0.400000000  0.800000000  0.201000000   2.0
  0.400000000  0.800000000  0.401000000   2.0
  0.400000000  0.800000000  0.601000000   2.0
  0.400000000  0.800000000  0.801000000   2.0
  0.600000000  0.600000000  0.001000000   1.0
  0.600000000  0.600000000  0.201000000   1.0
  0.600000000  0.600000000  0.401000000   1.0
  0.600000000  0.600000000  0.601000000   1.0
  0.600000000  0.600000000  0.801000000   1.0
  0.600000000  0.800000000  0.001000000   2.0
  0.600000000  0.800000000  0.201000000   2.0
  0.600000000  0.800000000  0.401000000   2.0
  0.600000000  0.800000000  0.601000000   2.0
  0.600000000  0.800000000  0.801000000   2.0
  0.800000000  0.800000000  0.001000000   1.0
  0.800000000  0.800000000  0.201000000   1.0
  0.800000000  0.800000000  0.401000000   1.0
  0.800000000  0.800000000  0.601000000   1.0
  0.800000000  0.800000000  0.801000000   1.0
