&control
  prefix = 'bn'
  calculation = 'scf'
  verbosity = 'high'
  restart_mode = 'from_scratch'
  wf_collect = .true.
  outdir = './'
  wfcdir = './'
  pseudo_dir = './'
/
&system
  ibrav = 0
  nat = 2
  ntyp = 2
  ecutwfc = 60
/
&electrons
  conv_thr = 1.d-8
  mixing_mode = 'local-TF'
  mixing_beta = 0.7d0
/
ATOMIC_SPECIES
  B  10.811    B.pz-mt_fhi.UPF
  N  14.007    N.pz-mt_fhi.UPF
CELL_PARAMETERS bohr
2.372555703	-4.109388686	0.000000000
2.372555703	4.109388686	0.000000000
0.000000000	0.000000000	28.345889829
ATOMIC_POSITIONS bohr
B	0.000000000	0.000000000	0.000000000
N	0.000000000	2.739591512	0.000000000
K_POINTS automatic
36 36 1 0 0 0
